33D32945 STP File, STP Format Version 1.0

SECTION Comment
Name "i640-331-PCST"
Creator "Indaco Biazzo" 
Remark "derived from Incidence graph by Cees Duin"
END

SECTION Graph
Nodes 640
Edges 1280
E 1 69 303.000000
E 1 101 301.000000
E 1 274 203.000000
E 1 284 207.000000
E 1 587 207.000000
E 1 611 199.000000
E 2 93 295.000000
E 2 121 295.000000
E 2 272 195.000000
E 2 285 203.000000
E 2 288 198.000000
E 2 321 201.000000
E 2 322 197.000000
E 2 341 197.000000
E 2 559 199.000000
E 3 9 297.000000
E 3 70 301.000000
E 3 363 201.000000
E 3 436 210.000000
E 4 54 305.000000
E 4 130 296.000000
E 4 339 199.000000
E 4 482 191.000000
E 4 586 202.000000
E 5 301 205.000000
E 5 331 205.000000
E 5 436 199.000000
E 5 503 200.000000
E 6 483 197.000000
E 6 531 202.000000
E 6 558 198.000000
E 7 40 301.000000
E 7 95 293.000000
E 7 251 206.000000
E 7 451 201.000000
E 7 598 201.000000
E 8 56 305.000000
E 8 87 301.000000
E 8 297 195.000000
E 8 333 205.000000
E 8 408 201.000000
E 8 424 203.000000
E 9 155 306.000000
E 9 301 206.000000
E 9 474 190.000000
E 9 596 201.000000
E 10 182 204.000000
E 10 192 209.000000
E 10 227 199.000000
E 10 490 190.000000
E 10 506 196.000000
E 11 50 306.000000
E 11 223 198.000000
E 11 257 192.000000
E 11 326 204.000000
E 11 516 197.000000
E 12 284 201.000000
E 12 308 204.000000
E 12 611 198.000000
E 13 161 199.000000
E 13 354 203.000000
E 14 240 192.000000
E 14 268 200.000000
E 14 276 187.000000
E 14 306 209.000000
E 14 543 193.000000
E 14 596 202.000000
E 14 619 197.000000
E 15 151 292.000000
E 15 305 207.000000
E 15 381 200.000000
E 15 465 213.000000
E 16 152 292.000000
E 16 221 199.000000
E 16 398 206.000000
E 16 486 199.000000
E 17 461 206.000000
E 18 64 305.000000
E 18 410 198.000000
E 19 57 302.000000
E 19 190 198.000000
E 19 363 207.000000
E 19 598 202.000000
E 20 109 296.000000
E 20 185 194.000000
E 20 569 194.000000
E 21 32 282.000000
E 21 246 199.000000
E 21 260 196.000000
E 21 436 198.000000
E 21 584 198.000000
E 22 93 292.000000
E 22 158 304.000000
E 22 179 210.000000
E 22 428 205.000000
E 22 491 197.000000
E 23 105 292.000000
E 23 226 202.000000
E 23 481 195.000000
E 24 188 197.000000
E 24 211 197.000000
E 25 120 295.000000
E 25 135 301.000000
E 25 206 202.000000
E 26 64 303.000000
E 26 342 205.000000
E 26 461 198.000000
E 27 37 299.000000
E 27 46 300.000000
E 27 361 203.000000
E 27 594 207.000000
E 27 640 195.000000
E 28 173 196.000000
E 28 312 190.000000
E 28 339 195.000000
E 28 517 199.000000
E 28 544 200.000000
E 29 480 192.000000
E 30 80 305.000000
E 30 167 193.000000
E 30 225 199.000000
E 30 271 199.000000
E 30 331 201.000000
E 30 430 196.000000
E 30 469 194.000000
E 30 516 199.000000
E 30 564 203.000000
E 31 259 198.000000
E 31 407 203.000000
E 31 484 193.000000
E 31 556 195.000000
E 31 625 205.000000
E 32 124 304.000000
E 32 378 205.000000
E 32 435 205.000000
E 32 530 203.000000
E 32 631 204.000000
E 33 169 189.000000
E 33 378 198.000000
E 33 381 199.000000
E 33 542 199.000000
E 34 307 201.000000
E 34 468 199.000000
E 34 503 197.000000
E 34 565 198.000000
E 35 59 288.000000
E 35 298 196.000000
E 36 78 300.000000
E 36 163 198.000000
E 36 231 201.000000
E 36 393 197.000000
E 36 609 198.000000
E 37 87 291.000000
E 37 93 316.000000
E 37 248 206.000000
E 37 478 202.000000
E 37 492 197.000000
E 38 618 203.000000
E 39 74 299.000000
E 39 200 204.000000
E 39 345 196.000000
E 40 89 300.000000
E 40 90 304.000000
E 40 180 211.000000
E 40 341 199.000000
E 40 355 196.000000
E 40 365 192.000000
E 40 389 206.000000
E 40 538 193.000000
E 40 614 198.000000
E 41 90 305.000000
E 41 166 201.000000
E 41 320 207.000000
E 42 323 199.000000
E 42 602 192.000000
E 43 113 292.000000
E 43 244 201.000000
E 43 287 192.000000
E 43 486 197.000000
E 43 500 203.000000
E 43 579 197.000000
E 44 62 308.000000
E 44 155 296.000000
E 44 192 205.000000
E 44 237 212.000000
E 45 112 306.000000
E 45 256 204.000000
E 45 352 205.000000
E 45 404 188.000000
E 46 165 197.000000
E 46 337 195.000000
E 46 450 203.000000
E 47 121 302.000000
E 47 215 198.000000
E 47 330 196.000000
E 47 420 203.000000
E 47 538 192.000000
E 47 576 199.000000
E 48 130 296.000000
E 48 396 197.000000
E 48 498 204.000000
E 48 558 204.000000
E 49 205 203.000000
E 49 369 200.000000
E 50 74 295.000000
E 50 224 203.000000
E 51 122 302.000000
E 51 251 196.000000
E 51 298 202.000000
E 51 473 204.000000
E 52 197 195.000000
E 52 208 200.000000
E 52 277 202.000000
E 52 369 202.000000
E 52 538 193.000000
E 53 121 297.000000
E 53 122 299.000000
E 53 509 195.000000
E 54 370 198.000000
E 55 470 201.000000
E 56 149 300.000000
E 56 157 301.000000
E 56 407 205.000000
E 56 461 192.000000
E 56 462 205.000000
E 56 519 193.000000
E 56 627 204.000000
E 57 109 304.000000
E 57 313 191.000000
E 57 316 200.000000
E 57 504 204.000000
E 58 154 298.000000
E 58 351 193.000000
E 58 499 203.000000
E 59 101 293.000000
E 59 369 204.000000
E 59 400 196.000000
E 59 497 206.000000
E 59 613 200.000000
E 60 153 302.000000
E 60 265 213.000000
E 61 430 207.000000
E 61 615 197.000000
E 62 178 193.000000
E 62 296 205.000000
E 62 299 203.000000
E 62 414 192.000000
E 62 491 198.000000
E 63 70 297.000000
E 63 156 299.000000
E 64 212 206.000000
E 64 269 205.000000
E 64 339 201.000000
E 64 421 199.000000
E 64 558 206.000000
E 64 570 201.000000
E 64 607 193.000000
E 65 102 297.000000
E 65 215 200.000000
E 66 526 198.000000
E 66 559 200.000000
E 66 590 199.000000
E 66 627 196.000000
E 67 222 197.000000
E 67 253 201.000000
E 67 331 188.000000
E 67 347 195.000000
E 67 422 204.000000
E 67 423 198.000000
E 67 461 201.000000
E 67 508 197.000000
E 67 543 202.000000
E 67 614 202.000000
E 68 110 296.000000
E 68 431 195.000000
E 69 210 198.000000
E 69 512 206.000000
E 69 609 203.000000
E 70 96 295.000000
E 70 123 301.000000
E 70 403 193.000000
E 70 415 200.000000
E 70 470 203.000000
E 70 474 198.000000
E 71 518 202.000000
E 72 178 201.000000
E 72 189 194.000000
E 72 318 207.000000
E 72 637 200.000000
E 73 297 197.000000
E 73 361 201.000000
E 73 362 198.000000
E 73 383 185.000000
E 73 450 198.000000
E 74 264 194.000000
E 74 410 195.000000
E 74 626 192.000000
E 75 395 203.000000
E 75 501 200.000000
E 76 137 294.000000
E 76 552 195.000000
E 77 315 197.000000
E 77 547 196.000000
E 78 128 302.000000
E 78 634 198.000000
E 79 319 200.000000
E 79 534 203.000000
E 80 252 202.000000
E 81 82 295.000000
E 81 159 304.000000
E 81 227 204.000000
E 81 278 191.000000
E 81 566 207.000000
E 81 569 202.000000
E 82 196 193.000000
E 82 218 202.000000
E 82 268 200.000000
E 82 410 196.000000
E 82 547 188.000000
E 83 136 291.000000
E 83 144 302.000000
E 83 180 193.000000
E 83 355 197.000000
E 83 418 206.000000
E 83 588 195.000000
E 84 434 205.000000
E 85 412 198.000000
E 85 447 199.000000
E 85 616 207.000000
E 86 436 199.000000
E 87 291 202.000000
E 87 463 193.000000
E 87 626 200.000000
E 88 155 289.000000
E 88 273 201.000000
E 88 314 199.000000
E 88 318 198.000000
E 88 456 204.000000
E 89 136 289.000000
E 89 154 304.000000
E 89 437 188.000000
E 90 122 303.000000
E 90 514 197.000000
E 91 129 299.000000
E 91 131 304.000000
E 91 369 199.000000
E 91 409 197.000000
E 91 570 197.000000
E 92 360 199.000000
E 92 387 198.000000
E 92 394 196.000000
E 93 363 206.000000
E 94 201 194.000000
E 94 322 190.000000
E 94 393 194.000000
E 94 395 204.000000
E 94 560 206.000000
E 94 568 194.000000
E 94 581 195.000000
E 94 599 211.000000
E 94 619 195.000000
E 95 212 200.000000
E 95 261 204.000000
E 95 277 198.000000
E 96 103 297.000000
E 96 541 204.000000
E 97 143 296.000000
E 97 167 200.000000
E 97 220 203.000000
E 97 349 193.000000
E 97 385 193.000000
E 97 399 199.000000
E 97 401 208.000000
E 98 151 293.000000
E 98 587 204.000000
E 99 372 197.000000
E 99 461 194.000000
E 99 505 199.000000
E 100 291 199.000000
E 100 345 202.000000
E 100 395 199.000000
E 100 423 202.000000
E 101 179 202.000000
E 102 243 196.000000
E 102 277 201.000000
E 102 457 202.000000
E 102 529 198.000000
E 102 624 199.000000
E 103 413 185.000000
E 103 495 199.000000
E 104 108 304.000000
E 104 153 294.000000
E 104 369 195.000000
E 104 624 192.000000
E 105 567 194.000000
E 105 624 203.000000
E 105 626 200.000000
E 105 627 199.000000
E 106 266 206.000000
E 106 373 198.000000
E 106 552 202.000000
E 106 605 194.000000
E 107 357 198.000000
E 108 183 191.000000
E 108 188 199.000000
E 109 306 200.000000
E 109 329 204.000000
E 109 430 198.000000
E 109 443 195.000000
E 109 496 203.000000
E 109 617 200.000000
E 110 302 200.000000
E 110 316 205.000000
E 110 544 201.000000
E 111 159 292.000000
E 111 345 209.000000
E 111 568 203.000000
E 111 637 208.000000
E 112 192 187.000000
E 112 248 200.000000
E 112 316 197.000000
E 112 547 197.000000
E 112 554 191.000000
E 112 598 197.000000
E 112 633 203.000000
E 113 319 199.000000
E 113 351 199.000000
E 113 442 201.000000
E 114 229 207.000000
E 114 280 192.000000
E 114 466 199.000000
E 114 513 201.000000
E 114 537 189.000000
E 115 187 212.000000
E 115 318 190.000000
E 116 261 201.000000
E 116 486 207.000000
E 116 516 194.000000
E 116 542 208.000000
E 117 125 292.000000
E 117 151 308.000000
E 117 193 210.000000
E 117 465 201.000000
E 118 607 196.000000
E 119 170 197.000000
E 119 214 201.000000
E 119 217 198.000000
E 119 310 198.000000
E 119 400 200.000000
E 119 519 202.000000
E 120 331 204.000000
E 120 500 201.000000
E 120 520 198.000000
E 120 631 190.000000
E 121 205 206.000000
E 121 262 206.000000
E 121 383 200.000000
E 121 442 204.000000
E 122 276 200.000000
E 122 509 193.000000
E 123 242 196.000000
E 123 332 207.000000
E 123 354 200.000000
E 123 639 199.000000
E 124 146 296.000000
E 124 190 204.000000
E 124 323 199.000000
E 124 417 201.000000
E 125 341 202.000000
E 125 450 200.000000
E 125 521 202.000000
E 126 473 202.000000
E 127 540 201.000000
E 127 579 199.000000
E 128 320 200.000000
E 129 287 203.000000
E 129 500 203.000000
E 130 285 196.000000
E 130 380 201.000000
E 130 516 197.000000
E 131 245 203.000000
E 131 473 194.000000
E 131 476 201.000000
E 131 516 192.000000
E 131 544 197.000000
E 131 631 201.000000
E 132 628 204.000000
E 133 310 202.000000
E 133 357 201.000000
E 134 383 200.000000
E 134 497 201.000000
E 135 176 195.000000
E 136 162 203.000000
E 136 245 200.000000
E 136 528 200.000000
E 136 562 195.000000
E 137 160 302.000000
E 137 166 197.000000
E 137 184 199.000000
E 138 529 195.000000
E 138 609 198.000000
E 139 207 196.000000
E 139 334 200.000000
E 139 469 200.000000
E 140 567 203.000000
E 141 155 301.000000
E 141 275 198.000000
E 141 407 195.000000
E 141 498 202.000000
E 141 506 197.000000
E 141 517 188.000000
E 142 148 299.000000
E 142 242 200.000000
E 142 536 197.000000
E 142 594 196.000000
E 143 410 199.000000
E 143 477 207.000000
E 143 607 204.000000
E 143 632 203.000000
E 144 202 196.000000
E 145 288 199.000000
E 145 344 193.000000
E 145 420 202.000000
E 145 431 188.000000
E 145 601 196.000000
E 146 185 200.000000
E 146 248 202.000000
E 146 376 205.000000
E 146 382 194.000000
E 146 429 193.000000
E 146 493 204.000000
E 146 530 196.000000
E 146 595 196.000000
E 147 206 199.000000
E 147 377 200.000000
E 147 408 200.000000
E 147 429 206.000000
E 148 151 300.000000
E 148 273 196.000000
E 148 352 200.000000
E 148 611 204.000000
E 149 198 200.000000
E 149 210 189.000000
E 149 245 204.000000
E 150 433 194.000000
E 150 636 202.000000
E 152 468 200.000000
E 152 506 200.000000
E 153 458 205.000000
E 153 545 200.000000
E 154 373 200.000000
E 155 419 195.000000
E 155 600 203.000000
E 155 630 192.000000
E 156 191 197.000000
E 156 401 207.000000
E 156 438 202.000000
E 156 525 202.000000
E 156 573 196.000000
E 156 603 201.000000
E 157 159 301.000000
E 157 184 198.000000
E 157 211 191.000000
E 157 444 203.000000
E 157 569 194.000000
E 158 304 205.000000
E 158 487 199.000000
E 161 332 99.000000
E 161 572 99.000000
E 162 199 86.000000
E 162 413 106.000000
E 162 633 99.000000
E 163 521 102.000000
E 164 189 91.000000
E 164 560 99.000000
E 165 361 112.000000
E 165 375 104.000000
E 165 415 91.000000
E 165 424 97.000000
E 165 479 100.000000
E 165 569 99.000000
E 165 587 99.000000
E 166 412 98.000000
E 166 439 102.000000
E 166 512 91.000000
E 167 197 103.000000
E 167 407 102.000000
E 167 444 100.000000
E 168 284 94.000000
E 170 183 101.000000
E 170 357 99.000000
E 170 460 89.000000
E 170 493 108.000000
E 171 242 96.000000
E 171 552 101.000000
E 171 575 99.000000
E 172 311 92.000000
E 172 344 99.000000
E 172 345 108.000000
E 172 381 99.000000
E 172 505 101.000000
E 172 602 96.000000
E 173 407 94.000000
E 173 552 99.000000
E 173 570 97.000000
E 174 255 109.000000
E 174 306 91.000000
E 174 544 96.000000
E 174 592 89.000000
E 175 284 101.000000
E 175 403 97.000000
E 175 518 97.000000
E 176 414 94.000000
E 176 431 102.000000
E 176 474 100.000000
E 176 476 96.000000
E 176 557 94.000000
E 176 574 102.000000
E 177 223 106.000000
E 177 334 94.000000
E 177 392 103.000000
E 178 245 106.000000
E 178 632 99.000000
E 179 351 107.000000
E 179 480 103.000000
E 180 440 102.000000
E 181 226 98.000000
E 181 431 94.000000
E 182 296 96.000000
E 182 483 100.000000
E 182 575 91.000000
E 183 216 96.000000
E 183 338 103.000000
E 183 349 100.000000
E 183 388 93.000000
E 183 445 97.000000
E 183 473 102.000000
E 184 391 98.000000
E 184 600 96.000000
E 184 631 86.000000
E 185 446 102.000000
E 185 533 97.000000
E 186 450 96.000000
E 187 202 110.000000
E 187 360 86.000000
E 188 233 113.000000
E 188 611 96.000000
E 189 488 96.000000
E 190 305 97.000000
E 190 398 104.000000
E 190 623 98.000000
E 191 228 99.000000
E 191 255 105.000000
E 192 301 102.000000
E 193 215 91.000000
E 193 271 104.000000
E 193 380 104.000000
E 193 447 109.000000
E 194 274 97.000000
E 194 292 102.000000
E 195 341 101.000000
E 195 509 105.000000
E 195 554 98.000000
E 195 585 104.000000
E 196 328 96.000000
E 196 431 106.000000
E 196 470 103.000000
E 197 274 103.000000
E 197 388 98.000000
E 198 210 96.000000
E 198 303 95.000000
E 198 454 99.000000
E 198 522 92.000000
E 199 248 95.000000
E 199 360 102.000000
E 199 619 98.000000
E 200 307 107.000000
E 200 467 103.000000
E 200 551 92.000000
E 200 584 100.000000
E 200 593 109.000000
E 201 302 103.000000
E 201 549 104.000000
E 201 604 96.000000
E 202 241 100.000000
E 202 315 99.000000
E 202 345 100.000000
E 202 390 101.000000
E 202 596 103.000000
E 203 582 100.000000
E 203 618 89.000000
E 204 273 92.000000
E 204 288 93.000000
E 204 302 97.000000
E 204 619 94.000000
E 205 277 103.000000
E 205 315 96.000000
E 205 331 103.000000
E 205 386 91.000000
E 205 514 98.000000
E 205 585 97.000000
E 205 629 90.000000
E 206 385 107.000000
E 206 601 105.000000
E 206 608 98.000000
E 207 221 93.000000
E 207 473 95.000000
E 207 533 99.000000
E 208 302 98.000000
E 208 425 98.000000
E 208 441 96.000000
E 209 275 98.000000
E 209 306 96.000000
E 209 403 107.000000
E 209 411 96.000000
E 210 303 95.000000
E 210 368 99.000000
E 210 451 97.000000
E 211 273 93.000000
E 211 303 92.000000
E 211 428 102.000000
E 211 458 95.000000
E 211 553 101.000000
E 211 623 105.000000
E 212 270 95.000000
E 212 431 95.000000
E 212 562 95.000000
E 213 267 104.000000
E 213 379 99.000000
E 214 270 107.000000
E 214 351 102.000000
E 214 453 100.000000
E 214 491 97.000000
E 214 526 97.000000
E 215 302 101.000000
E 215 424 92.000000
E 216 270 101.000000
E 217 311 101.000000
E 217 360 100.000000
E 217 449 98.000000
E 217 559 99.000000
E 218 227 98.000000
E 218 365 101.000000
E 219 220 102.000000
E 219 234 96.000000
E 219 246 101.000000
E 219 359 96.000000
E 219 477 96.000000
E 220 411 103.000000
E 220 467 94.000000
E 220 517 96.000000
E 221 241 93.000000
E 221 304 102.000000
E 222 228 105.000000
E 223 388 107.000000
E 223 458 89.000000
E 223 495 99.000000
E 224 323 101.000000
E 224 459 103.000000
E 224 545 93.000000
E 225 283 98.000000
E 225 343 92.000000
E 225 508 95.000000
E 226 300 109.000000
E 226 455 102.000000
E 226 485 101.000000
E 226 611 105.000000
E 230 250 101.000000
E 230 613 98.000000
E 231 300 94.000000
E 231 324 101.000000
E 231 337 94.000000
E 231 346 105.000000
E 231 421 107.000000
E 232 354 96.000000
E 233 279 90.000000
E 233 324 104.000000
E 233 373 102.000000
E 233 590 107.000000
E 234 336 100.000000
E 234 491 105.000000
E 235 291 98.000000
E 235 349 92.000000
E 235 365 100.000000
E 235 506 99.000000
E 235 541 93.000000
E 235 560 90.000000
E 235 564 95.000000
E 236 242 104.000000
E 236 581 100.000000
E 237 287 97.000000
E 238 346 102.000000
E 238 627 102.000000
E 239 473 108.000000
E 240 364 97.000000
E 241 322 100.000000
E 242 247 103.000000
E 242 323 99.000000
E 242 475 102.000000
E 242 487 100.000000
E 242 563 102.000000
E 243 282 86.000000
E 244 387 101.000000
E 244 412 104.000000
E 244 502 102.000000
E 244 520 91.000000
E 244 564 90.000000
E 244 595 102.000000
E 244 638 102.000000
E 245 290 104.000000
E 245 587 107.000000
E 245 628 100.000000
E 246 301 102.000000
E 246 524 93.000000
E 247 295 92.000000
E 247 342 104.000000
E 248 268 102.000000
E 248 366 103.000000
E 248 375 104.000000
E 249 266 95.000000
E 249 451 102.000000
E 249 616 112.000000
E 250 320 92.000000
E 251 494 104.000000
E 251 510 99.000000
E 251 631 98.000000
E 254 383 107.000000
E 254 403 103.000000
E 254 556 99.000000
E 255 610 104.000000
E 255 637 100.000000
E 258 321 111.000000
E 258 521 105.000000
E 259 302 100.000000
E 259 334 98.000000
E 261 427 97.000000
E 261 507 102.000000
E 261 538 96.000000
E 262 381 101.000000
E 262 446 103.000000
E 262 546 97.000000
E 263 283 109.000000
E 263 288 98.000000
E 263 510 93.000000
E 264 361 91.000000
E 264 402 101.000000
E 264 438 98.000000
E 264 501 97.000000
E 264 546 108.000000
E 265 273 100.000000
E 265 340 100.000000
E 266 379 100.000000
E 266 407 101.000000
E 266 612 96.000000
E 267 292 96.000000
E 267 319 95.000000
E 267 403 97.000000
E 267 465 93.000000
E 267 513 102.000000
E 267 611 100.000000
E 268 497 99.000000
E 268 552 105.000000
E 268 631 105.000000
E 269 347 93.000000
E 269 596 93.000000
E 269 628 99.000000
E 271 341 100.000000
E 272 318 92.000000
E 272 463 94.000000
E 273 320 96.000000
E 273 323 97.000000
E 273 325 99.000000
E 273 327 101.000000
E 273 357 106.000000
E 273 631 100.000000
E 274 353 102.000000
E 274 557 92.000000
E 274 579 110.000000
E 276 556 105.000000
E 277 351 103.000000
E 277 631 98.000000
E 278 397 90.000000
E 279 371 96.000000
E 280 312 91.000000
E 280 622 100.000000
E 281 303 93.000000
E 281 363 101.000000
E 281 419 102.000000
E 281 451 96.000000
E 282 308 98.000000
E 284 315 103.000000
E 284 322 104.000000
E 284 326 102.000000
E 284 388 94.000000
E 284 405 97.000000
E 284 428 104.000000
E 284 463 102.000000
E 286 323 95.000000
E 286 564 97.000000
E 287 346 98.000000
E 288 378 101.000000
E 289 332 95.000000
E 289 372 99.000000
E 290 297 102.000000
E 290 462 104.000000
E 291 458 102.000000
E 292 446 100.000000
E 292 477 91.000000
E 292 636 92.000000
E 293 621 95.000000
E 294 298 97.000000
E 294 472 106.000000
E 294 538 99.000000
E 294 606 106.000000
E 295 334 101.000000
E 295 511 106.000000
E 295 569 98.000000
E 296 349 93.000000
E 297 335 100.000000
E 297 482 101.000000
E 298 395 99.000000
E 298 474 98.000000
E 299 607 93.000000
E 300 324 92.000000
E 300 588 94.000000
E 301 592 108.000000
E 302 336 101.000000
E 302 619 102.000000
E 303 360 97.000000
E 303 464 98.000000
E 304 329 97.000000
E 304 611 101.000000
E 305 553 110.000000
E 305 557 91.000000
E 306 348 103.000000
E 306 503 96.000000
E 307 342 96.000000
E 307 358 95.000000
E 307 478 104.000000
E 307 491 97.000000
E 308 363 104.000000
E 308 530 103.000000
E 309 405 100.000000
E 310 362 100.000000
E 310 409 95.000000
E 310 463 103.000000
E 311 428 97.000000
E 311 504 102.000000
E 311 570 98.000000
E 311 614 98.000000
E 311 633 96.000000
E 312 380 101.000000
E 312 491 105.000000
E 312 536 100.000000
E 313 319 97.000000
E 314 346 98.000000
E 314 370 97.000000
E 314 510 94.000000
E 314 571 104.000000
E 315 365 106.000000
E 316 522 98.000000
E 316 547 98.000000
E 317 335 87.000000
E 317 614 99.000000
E 317 638 100.000000
E 318 362 98.000000
E 318 434 96.000000
E 318 496 101.000000
E 318 505 102.000000
E 319 407 103.000000
E 319 466 94.000000
E 319 589 105.000000
E 320 339 98.000000
E 320 385 106.000000
E 320 480 90.000000
E 320 518 97.000000
E 321 410 95.000000
E 321 462 112.000000
E 321 526 109.000000
E 321 531 101.000000
E 322 378 99.000000
E 322 412 102.000000
E 322 490 98.000000
E 322 516 98.000000
E 322 620 104.000000
E 322 627 100.000000
E 322 631 105.000000
E 323 476 94.000000
E 323 516 101.000000
E 323 582 112.000000
E 323 610 100.000000
E 324 446 101.000000
E 325 632 96.000000
E 326 373 103.000000
E 326 575 98.000000
E 329 353 83.000000
E 329 495 98.000000
E 330 554 101.000000
E 330 581 95.000000
E 331 597 93.000000
E 332 470 95.000000
E 332 472 99.000000
E 332 488 96.000000
E 335 373 108.000000
E 336 421 109.000000
E 337 475 109.000000
E 338 498 88.000000
E 338 559 96.000000
E 340 350 97.000000
E 340 383 100.000000
E 340 396 95.000000
E 340 636 106.000000
E 341 390 95.000000
E 341 548 96.000000
E 342 505 99.000000
E 342 537 105.000000
E 342 587 101.000000
E 342 621 103.000000
E 344 346 98.000000
E 344 505 109.000000
E 345 572 98.000000
E 347 398 97.000000
E 348 362 100.000000
E 349 449 98.000000
E 349 504 100.000000
E 349 515 97.000000
E 349 521 95.000000
E 350 441 99.000000
E 350 494 99.000000
E 350 505 101.000000
E 351 411 100.000000
E 351 523 99.000000
E 351 570 112.000000
E 351 603 105.000000
E 352 379 101.000000
E 352 563 102.000000
E 352 620 102.000000
E 353 454 107.000000
E 353 500 96.000000
E 354 436 105.000000
E 356 467 95.000000
E 356 526 94.000000
E 357 484 103.000000
E 357 608 99.000000
E 358 408 94.000000
E 358 501 96.000000
E 359 388 89.000000
E 359 581 103.000000
E 359 602 98.000000
E 359 611 93.000000
E 360 401 97.000000
E 360 536 97.000000
E 361 375 99.000000
E 361 427 100.000000
E 361 445 108.000000
E 361 452 105.000000
E 363 539 98.000000
E 363 616 102.000000
E 363 635 94.000000
E 364 611 96.000000
E 365 471 99.000000
E 365 570 96.000000
E 366 428 98.000000
E 367 453 100.000000
E 367 509 96.000000
E 368 394 101.000000
E 368 494 93.000000
E 369 394 96.000000
E 369 638 102.000000
E 371 534 100.000000
E 371 621 113.000000
E 371 636 100.000000
E 373 583 104.000000
E 374 447 95.000000
E 374 507 100.000000
E 374 569 105.000000
E 375 430 103.000000
E 375 531 100.000000
E 375 544 84.000000
E 377 586 90.000000
E 378 580 97.000000
E 379 385 100.000000
E 379 419 97.000000
E 380 540 100.000000
E 381 434 95.000000
E 381 499 94.000000
E 381 583 98.000000
E 382 520 93.000000
E 382 623 99.000000
E 383 434 109.000000
E 383 569 105.000000
E 384 489 98.000000
E 386 415 104.000000
E 388 584 100.000000
E 390 600 102.000000
E 391 404 100.000000
E 391 492 99.000000
E 392 482 107.000000
E 392 505 99.000000
E 392 576 105.000000
E 392 594 101.000000
E 393 497 97.000000
E 393 617 111.000000
E 393 621 104.000000
E 394 421 96.000000
E 394 594 93.000000
E 395 615 105.000000
E 397 560 98.000000
E 397 568 98.000000
E 397 577 96.000000
E 398 426 95.000000
E 398 436 105.000000
E 398 490 105.000000
E 398 564 101.000000
E 399 454 112.000000
E 399 587 93.000000
E 399 620 98.000000
E 400 623 109.000000
E 401 481 101.000000
E 401 546 101.000000
E 401 636 95.000000
E 403 510 97.000000
E 405 451 98.000000
E 405 498 94.000000
E 405 532 93.000000
E 405 572 92.000000
E 405 600 100.000000
E 406 586 100.000000
E 407 501 91.000000
E 407 567 99.000000
E 409 564 103.000000
E 409 573 98.000000
E 411 428 106.000000
E 411 562 104.000000
E 412 505 100.000000
E 413 504 93.000000
E 413 546 106.000000
E 414 475 96.000000
E 415 467 100.000000
E 415 471 92.000000
E 415 515 104.000000
E 415 628 99.000000
E 416 516 102.000000
E 416 612 94.000000
E 417 427 102.000000
E 418 436 104.000000
E 419 474 102.000000
E 419 595 97.000000
E 419 622 98.000000
E 420 634 98.000000
E 422 470 103.000000
E 422 496 114.000000
E 424 552 99.000000
E 425 525 106.000000
E 426 498 107.000000
E 428 539 95.000000
E 429 541 104.000000
E 431 563 98.000000
E 432 451 92.000000
E 432 453 101.000000
E 432 611 96.000000
E 433 591 98.000000
E 434 591 100.000000
E 435 546 96.000000
E 437 481 99.000000
E 438 583 97.000000
E 439 491 106.000000
E 440 574 94.000000
E 441 498 92.000000
E 441 529 100.000000
E 441 615 106.000000
E 442 538 102.000000
E 443 495 106.000000
E 443 510 101.000000
E 444 470 107.000000
E 445 553 102.000000
E 445 586 101.000000
E 446 448 98.000000
E 446 527 105.000000
E 447 461 98.000000
E 451 467 96.000000
E 451 584 103.000000
E 454 617 95.000000
E 455 602 91.000000
E 456 560 98.000000
E 456 604 100.000000
E 457 515 98.000000
E 459 482 88.000000
E 459 542 100.000000
E 460 527 102.000000
E 460 544 106.000000
E 461 599 101.000000
E 461 640 102.000000
E 463 481 100.000000
E 466 625 111.000000
E 468 480 97.000000
E 468 571 100.000000
E 470 566 93.000000
E 471 507 93.000000
E 474 488 99.000000
E 475 573 107.000000
E 477 532 104.000000
E 478 586 96.000000
E 478 632 99.000000
E 479 516 97.000000
E 484 608 98.000000
E 485 543 99.000000
E 485 587 93.000000
E 486 609 96.000000
E 487 596 99.000000
E 489 572 99.000000
E 491 600 95.000000
E 491 636 94.000000
E 492 501 99.000000
E 493 584 102.000000
E 493 617 104.000000
E 493 621 89.000000
E 496 520 98.000000
E 500 519 97.000000
E 500 535 96.000000
E 502 639 101.000000
E 503 516 105.000000
E 504 516 101.000000
E 504 527 102.000000
E 504 565 106.000000
E 504 579 105.000000
E 504 614 100.000000
E 508 543 104.000000
E 509 589 92.000000
E 510 577 110.000000
E 511 562 97.000000
E 512 604 103.000000
E 514 579 108.000000
E 516 551 98.000000
E 516 603 101.000000
E 517 617 91.000000
E 520 599 95.000000
E 524 604 97.000000
E 527 563 97.000000
E 527 582 97.000000
E 528 613 109.000000
E 530 587 106.000000
E 531 555 102.000000
E 533 578 101.000000
E 533 582 105.000000
E 533 591 96.000000
E 534 596 94.000000
E 534 616 108.000000
E 535 610 100.000000
E 540 567 105.000000
E 541 567 92.000000
E 542 614 100.000000
E 546 639 101.000000
E 548 561 97.000000
E 549 624 92.000000
E 550 584 100.000000
E 551 569 100.000000
E 556 612 99.000000
E 556 613 107.000000
E 563 634 94.000000
E 565 624 92.000000
E 567 573 99.000000
E 567 592 102.000000
E 567 604 93.000000
E 571 619 94.000000
E 572 614 104.000000
E 578 623 96.000000
E 581 609 107.000000
E 582 605 109.000000
E 586 613 97.000000
E 588 639 94.000000
E 590 610 104.000000
E 593 636 104.000000
E 595 605 95.000000
E 600 618 99.000000
E 600 637 92.000000
E 601 613 96.000000
E 606 626 87.000000
E 606 630 93.000000
E 617 627 101.000000
END

SECTION Terminals
Terminals 160
TP 1 300.000000
TP 2 600.000000
TP 3 1204.000000
TP 4 468.000000
TP 5 256.000000
TP 6 380.000000
TP 7 460.000000
TP 8 100.000000
TP 9 688.000000
TP 10 252.000000
TP 11 208.000000
TP 12 964.000000
TP 13 624.000000
TP 14 536.000000
TP 15 840.000000
TP 16 816.000000
TP 17 196.000000
TP 18 208.000000
TP 19 428.000000
TP 20 480.000000
TP 21 700.000000
TP 22 772.000000
TP 23 1104.000000
TP 24 716.000000
TP 25 760.000000
TP 26 868.000000
TP 27 300.000000
TP 28 1204.000000
TP 29 768.000000
TP 30 532.000000
TP 31 1252.000000
TP 32 1160.000000
TP 33 384.000000
TP 34 528.000000
TP 35 64.000000
TP 36 848.000000
TP 37 812.000000
TP 38 1028.000000
TP 39 164.000000
TP 40 532.000000
TP 41 672.000000
TP 42 656.000000
TP 43 1040.000000
TP 44 1152.000000
TP 45 972.000000
TP 46 1252.000000
TP 47 940.000000
TP 48 568.000000
TP 49 1052.000000
TP 50 176.000000
TP 51 976.000000
TP 52 904.000000
TP 53 488.000000
TP 54 248.000000
TP 55 416.000000
TP 56 384.000000
TP 57 412.000000
TP 58 500.000000
TP 59 1256.000000
TP 60 1252.000000
TP 61 1056.000000
TP 62 516.000000
TP 63 1232.000000
TP 64 272.000000
TP 65 876.000000
TP 66 816.000000
TP 67 24.000000
TP 68 280.000000
TP 69 664.000000
TP 70 1124.000000
TP 71 1228.000000
TP 72 656.000000
TP 73 912.000000
TP 74 1120.000000
TP 75 824.000000
TP 76 184.000000
TP 77 720.000000
TP 78 296.000000
TP 79 1116.000000
TP 80 52.000000
TP 81 264.000000
TP 82 692.000000
TP 83 1172.000000
TP 84 612.000000
TP 85 120.000000
TP 86 1228.000000
TP 87 680.000000
TP 88 180.000000
TP 89 1048.000000
TP 90 88.000000
TP 91 28.000000
TP 92 800.000000
TP 93 68.000000
TP 94 56.000000
TP 95 1220.000000
TP 96 344.000000
TP 97 876.000000
TP 98 940.000000
TP 99 528.000000
TP 100 76.000000
TP 101 1108.000000
TP 102 12.000000
TP 103 544.000000
TP 104 1220.000000
TP 105 612.000000
TP 106 392.000000
TP 107 284.000000
TP 108 1256.000000
TP 109 1244.000000
TP 110 920.000000
TP 111 228.000000
TP 112 16.000000
TP 113 196.000000
TP 114 1176.000000
TP 115 816.000000
TP 116 40.000000
TP 117 288.000000
TP 118 708.000000
TP 119 1092.000000
TP 120 244.000000
TP 121 748.000000
TP 122 744.000000
TP 123 732.000000
TP 124 524.000000
TP 125 1044.000000
TP 126 1012.000000
TP 127 24.000000
TP 128 900.000000
TP 129 456.000000
TP 130 480.000000
TP 131 764.000000
TP 132 164.000000
TP 133 28.000000
TP 134 1260.000000
TP 135 652.000000
TP 136 304.000000
TP 137 160.000000
TP 138 988.000000
TP 139 1172.000000
TP 140 632.000000
TP 141 932.000000
TP 142 788.000000
TP 143 840.000000
TP 144 1108.000000
TP 145 536.000000
TP 146 448.000000
TP 147 1060.000000
TP 148 1180.000000
TP 149 1144.000000
TP 150 564.000000
TP 151 744.000000
TP 152 532.000000
TP 153 620.000000
TP 154 648.000000
TP 155 184.000000
TP 156 252.000000
TP 157 312.000000
TP 158 272.000000
TP 159 616.000000
TP 160 228.000000
END

EOF
